c cksystemsgroup.github.io/unicorn
c CNF contains a total of 495 clauses.
c CNF contains a total of 119 variables.
c CNF clauses cover 1 bad states.
c Variable name mapping (17 names):
c   1: input[bit=0]
c   2: input[bit=0]
c   5: input[bit=1]
c   7: input[bit=1]
c   13: input[bit=2]
c   18: input[bit=2]
c   23: input[bit=3]
c   31: input[bit=3]
c   36: input[bit=4]
c   47: input[bit=4]
c   52: input[bit=5]
c   66: input[bit=5]
c   71: input[bit=6]
c   88: input[bit=6]
c   94: input[bit=7]
c   114: input[bit=7]
c   119: ?
p cnf 119 495
-1 -2 3 0
1 -3 0
2 -3 0
-3 -4 0
3 4 0
-5 -2 6 0
5 -6 0
2 -6 0
-1 -7 8 0
1 -8 0
7 -8 0
-9 0
6 8 9 -10 0
6 8 -9 10 0
6 -8 9 10 0
6 -8 -9 -10 0
-6 8 9 10 0
-6 8 -9 -10 0
-6 -8 9 -10 0
-6 -8 -9 10 0
-10 -11 0
10 11 0
-4 -11 12 0
4 -12 0
11 -12 0
-13 -2 14 0
13 -14 0
2 -14 0
-5 -7 15 0
5 -15 0
7 -15 0
6 8 -16 0
6 9 -16 0
-8 -9 16 0
8 9 -16 0
-6 -9 16 0
-6 -8 16 0
14 15 16 -17 0
14 15 -16 17 0
14 -15 16 17 0
14 -15 -16 -17 0
-14 15 16 17 0
-14 15 -16 -17 0
-14 -15 16 -17 0
-14 -15 -16 17 0
-1 -18 19 0
1 -19 0
18 -19 0
-20 0
17 19 20 -21 0
17 19 -20 21 0
17 -19 20 21 0
17 -19 -20 -21 0
-17 19 20 21 0
-17 19 -20 -21 0
-17 -19 20 -21 0
-17 -19 -20 21 0
-12 -21 22 0
12 -22 0
21 -22 0
-23 -2 24 0
23 -24 0
2 -24 0
-13 -7 25 0
13 -25 0
7 -25 0
14 15 -26 0
14 16 -26 0
-15 -16 26 0
15 16 -26 0
-14 -16 26 0
-14 -15 26 0
24 25 26 -27 0
24 25 -26 27 0
24 -25 26 27 0
24 -25 -26 -27 0
-24 25 26 27 0
-24 25 -26 -27 0
-24 -25 26 -27 0
-24 -25 -26 27 0
-5 -18 28 0
5 -28 0
18 -28 0
17 19 -29 0
17 20 -29 0
-19 -20 29 0
19 20 -29 0
-17 -20 29 0
-17 -19 29 0
27 28 29 -30 0
27 28 -29 30 0
27 -28 29 30 0
27 -28 -29 -30 0
-27 28 29 30 0
-27 28 -29 -30 0
-27 -28 29 -30 0
-27 -28 -29 30 0
-1 -31 32 0
1 -32 0
31 -32 0
-33 0
30 32 33 -34 0
30 32 -33 34 0
30 -32 33 34 0
30 -32 -33 -34 0
-30 32 33 34 0
-30 32 -33 -34 0
-30 -32 33 -34 0
-30 -32 -33 34 0
-22 -34 35 0
22 -35 0
34 -35 0
-36 -2 37 0
36 -37 0
2 -37 0
-23 -7 38 0
23 -38 0
7 -38 0
24 25 -39 0
24 26 -39 0
-25 -26 39 0
25 26 -39 0
-24 -26 39 0
-24 -25 39 0
37 38 39 -40 0
37 38 -39 40 0
37 -38 39 40 0
37 -38 -39 -40 0
-37 38 39 40 0
-37 38 -39 -40 0
-37 -38 39 -40 0
-37 -38 -39 40 0
-13 -18 41 0
13 -41 0
18 -41 0
27 28 -42 0
27 29 -42 0
-28 -29 42 0
28 29 -42 0
-27 -29 42 0
-27 -28 42 0
40 41 42 -43 0
40 41 -42 43 0
40 -41 42 43 0
40 -41 -42 -43 0
-40 41 42 43 0
-40 41 -42 -43 0
-40 -41 42 -43 0
-40 -41 -42 43 0
-5 -31 44 0
5 -44 0
31 -44 0
30 32 -45 0
30 33 -45 0
-32 -33 45 0
32 33 -45 0
-30 -33 45 0
-30 -32 45 0
43 44 45 -46 0
43 44 -45 46 0
43 -44 45 46 0
43 -44 -45 -46 0
-43 44 45 46 0
-43 44 -45 -46 0
-43 -44 45 -46 0
-43 -44 -45 46 0
-1 -47 48 0
1 -48 0
47 -48 0
-49 0
46 48 49 -50 0
46 48 -49 50 0
46 -48 49 50 0
46 -48 -49 -50 0
-46 48 49 50 0
-46 48 -49 -50 0
-46 -48 49 -50 0
-46 -48 -49 50 0
-35 -50 51 0
35 -51 0
50 -51 0
-52 -2 53 0
52 -53 0
2 -53 0
-36 -7 54 0
36 -54 0
7 -54 0
37 38 -55 0
37 39 -55 0
-38 -39 55 0
38 39 -55 0
-37 -39 55 0
-37 -38 55 0
53 54 55 -56 0
53 54 -55 56 0
53 -54 55 56 0
53 -54 -55 -56 0
-53 54 55 56 0
-53 54 -55 -56 0
-53 -54 55 -56 0
-53 -54 -55 56 0
-23 -18 57 0
23 -57 0
18 -57 0
40 41 -58 0
40 42 -58 0
-41 -42 58 0
41 42 -58 0
-40 -42 58 0
-40 -41 58 0
56 57 58 -59 0
56 57 -58 59 0
56 -57 58 59 0
56 -57 -58 -59 0
-56 57 58 59 0
-56 57 -58 -59 0
-56 -57 58 -59 0
-56 -57 -58 59 0
-13 -31 60 0
13 -60 0
31 -60 0
43 44 -61 0
43 45 -61 0
-44 -45 61 0
44 45 -61 0
-43 -45 61 0
-43 -44 61 0
59 60 61 -62 0
59 60 -61 62 0
59 -60 61 62 0
59 -60 -61 -62 0
-59 60 61 62 0
-59 60 -61 -62 0
-59 -60 61 -62 0
-59 -60 -61 62 0
-5 -47 63 0
5 -63 0
47 -63 0
46 48 -64 0
46 49 -64 0
-48 -49 64 0
48 49 -64 0
-46 -49 64 0
-46 -48 64 0
62 63 64 -65 0
62 63 -64 65 0
62 -63 64 65 0
62 -63 -64 -65 0
-62 63 64 65 0
-62 63 -64 -65 0
-62 -63 64 -65 0
-62 -63 -64 65 0
-1 -66 67 0
1 -67 0
66 -67 0
-68 0
65 67 68 -69 0
65 67 -68 69 0
65 -67 68 69 0
65 -67 -68 -69 0
-65 67 68 69 0
-65 67 -68 -69 0
-65 -67 68 -69 0
-65 -67 -68 69 0
-51 -69 70 0
51 -70 0
69 -70 0
-71 -2 72 0
71 -72 0
2 -72 0
-52 -7 73 0
52 -73 0
7 -73 0
53 54 -74 0
53 55 -74 0
-54 -55 74 0
54 55 -74 0
-53 -55 74 0
-53 -54 74 0
72 73 74 -75 0
72 73 -74 75 0
72 -73 74 75 0
72 -73 -74 -75 0
-72 73 74 75 0
-72 73 -74 -75 0
-72 -73 74 -75 0
-72 -73 -74 75 0
-36 -18 76 0
36 -76 0
18 -76 0
56 57 -77 0
56 58 -77 0
-57 -58 77 0
57 58 -77 0
-56 -58 77 0
-56 -57 77 0
75 76 77 -78 0
75 76 -77 78 0
75 -76 77 78 0
75 -76 -77 -78 0
-75 76 77 78 0
-75 76 -77 -78 0
-75 -76 77 -78 0
-75 -76 -77 78 0
-23 -31 79 0
23 -79 0
31 -79 0
59 60 -80 0
59 61 -80 0
-60 -61 80 0
60 61 -80 0
-59 -61 80 0
-59 -60 80 0
78 79 80 -81 0
78 79 -80 81 0
78 -79 80 81 0
78 -79 -80 -81 0
-78 79 80 81 0
-78 79 -80 -81 0
-78 -79 80 -81 0
-78 -79 -80 81 0
-13 -47 82 0
13 -82 0
47 -82 0
62 63 -83 0
62 64 -83 0
-63 -64 83 0
63 64 -83 0
-62 -64 83 0
-62 -63 83 0
81 82 83 -84 0
81 82 -83 84 0
81 -82 83 84 0
81 -82 -83 -84 0
-81 82 83 84 0
-81 82 -83 -84 0
-81 -82 83 -84 0
-81 -82 -83 84 0
-5 -66 85 0
5 -85 0
66 -85 0
65 67 -86 0
65 68 -86 0
-67 -68 86 0
67 68 -86 0
-65 -68 86 0
-65 -67 86 0
84 85 86 -87 0
84 85 -86 87 0
84 -85 86 87 0
84 -85 -86 -87 0
-84 85 86 87 0
-84 85 -86 -87 0
-84 -85 86 -87 0
-84 -85 -86 87 0
-1 -88 89 0
1 -89 0
88 -89 0
-90 0
87 89 90 -91 0
87 89 -90 91 0
87 -89 90 91 0
87 -89 -90 -91 0
-87 89 90 91 0
-87 89 -90 -91 0
-87 -89 90 -91 0
-87 -89 -90 91 0
-91 -92 0
91 92 0
-70 -92 93 0
70 -93 0
92 -93 0
-94 -2 95 0
94 -95 0
2 -95 0
-71 -7 96 0
71 -96 0
7 -96 0
72 73 -97 0
72 74 -97 0
-73 -74 97 0
73 74 -97 0
-72 -74 97 0
-72 -73 97 0
95 96 97 -98 0
95 96 -97 98 0
95 -96 97 98 0
95 -96 -97 -98 0
-95 96 97 98 0
-95 96 -97 -98 0
-95 -96 97 -98 0
-95 -96 -97 98 0
-52 -18 99 0
52 -99 0
18 -99 0
75 76 -100 0
75 77 -100 0
-76 -77 100 0
76 77 -100 0
-75 -77 100 0
-75 -76 100 0
98 99 100 -101 0
98 99 -100 101 0
98 -99 100 101 0
98 -99 -100 -101 0
-98 99 100 101 0
-98 99 -100 -101 0
-98 -99 100 -101 0
-98 -99 -100 101 0
-36 -31 102 0
36 -102 0
31 -102 0
78 79 -103 0
78 80 -103 0
-79 -80 103 0
79 80 -103 0
-78 -80 103 0
-78 -79 103 0
101 102 103 -104 0
101 102 -103 104 0
101 -102 103 104 0
101 -102 -103 -104 0
-101 102 103 104 0
-101 102 -103 -104 0
-101 -102 103 -104 0
-101 -102 -103 104 0
-23 -47 105 0
23 -105 0
47 -105 0
81 82 -106 0
81 83 -106 0
-82 -83 106 0
82 83 -106 0
-81 -83 106 0
-81 -82 106 0
104 105 106 -107 0
104 105 -106 107 0
104 -105 106 107 0
104 -105 -106 -107 0
-104 105 106 107 0
-104 105 -106 -107 0
-104 -105 106 -107 0
-104 -105 -106 107 0
-13 -66 108 0
13 -108 0
66 -108 0
84 85 -109 0
84 86 -109 0
-85 -86 109 0
85 86 -109 0
-84 -86 109 0
-84 -85 109 0
107 108 109 -110 0
107 108 -109 110 0
107 -108 109 110 0
107 -108 -109 -110 0
-107 108 109 110 0
-107 108 -109 -110 0
-107 -108 109 -110 0
-107 -108 -109 110 0
-5 -88 111 0
5 -111 0
88 -111 0
87 89 -112 0
87 90 -112 0
-89 -90 112 0
89 90 -112 0
-87 -90 112 0
-87 -89 112 0
110 111 112 -113 0
110 111 -112 113 0
110 -111 112 113 0
110 -111 -112 -113 0
-110 111 112 113 0
-110 111 -112 -113 0
-110 -111 112 -113 0
-110 -111 -112 113 0
-1 -114 115 0
1 -115 0
114 -115 0
-116 0
113 115 116 -117 0
113 115 -116 117 0
113 -115 116 117 0
113 -115 -116 -117 0
-113 115 116 117 0
-113 115 -116 -117 0
-113 -115 116 -117 0
-113 -115 -116 117 0
-117 -118 0
117 118 0
-93 -118 119 0
93 -119 0
118 -119 0
119 0
